c is-unsat
p cnf 10 68
-5 9 -2 0
-6 9 10 0
-9 -3 -7 0
-3 -9 -1 0
-5 8 -6 0
7 -5 2 0
-5 -1 -6 0
-5 -7 -2 0
-2 -1 -4 0
-9 -5 7 0
-5 -3 7 0
-10 1 -9 0
-1 -10 8 0
-8 -7 10 0
-6 -10 1 0
-5 -9 -3 0
6 3 10 0
-4 8 -9 0
9 -7 -8 0
-7 -6 -9 0
-7 -8 -4 0
4 -10 -1 0
-9 8 -2 0
-10 7 -2 0
7 -10 -3 0
6 -4 -5 0
-8 2 -4 0
-2 -4 8 0
3 -8 7 0
4 10 -1 0
-6 2 -9 0
10 2 8 0
-2 -10 8 0
-9 -10 -3 0
1 -3 -8 0
-4 -3 7 0
-10 5 3 0
4 -3 -6 0
7 1 -3 0
7 -4 5 0
-5 -2 -3 0
-3 8 4 0
-7 -9 8 0
9 -4 -7 0
9 5 4 0
5 -1 -2 0
-6 2 -10 0
-4 -6 7 0
-6 -8 -5 0
6 -5 -4 0
-5 8 -10 0
-5 -8 6 0
-7 1 4 0
-8 -2 6 0
-7 -5 -8 0
9 -2 -5 0
-9 -8 -1 0
-2 -9 4 0
-8 -2 -4 0
2 -8 -3 0
-3 -8 -7 0
1 10 -7 0
8 -10 9 0
1 -8 10 0
-5 -3 6 0
-6 -10 8 0
-5 2 9 0
3 -10 2 0
